(set-logic QF_S)
(declare-fun var0 () String)
(declare-fun var1 () Int)
(declare-fun var2 () Int)
(declare-fun var3 () String)
(declare-fun var4 () Int)
(declare-fun var5 () Int)
(declare-fun var6 () String)
(declare-fun var7 () String)
(assert (str.in.re (str.replace "(9qLRbc9" var0 "5MV") (re.* re.allchar)))
(assert (< var1 var2))
(assert (< (str.len (str.substr var3 var4 var5)) (str.indexof (str.at var6 var2) (str.at var7 var5) (str.to.int var0))))
(assert (str.in.re (str.replace (str.substr var6 var1 var2) (str.substr var7 var4 var5) (str.replace "Wn<+\\v" var3 var6)) (re.* (re.+ re.allchar))))
(check-sat)